(set-logic HORN)
(declare-fun inv ((_ BitVec 32) (_ BitVec 32) (_ BitVec 32) (_ BitVec 32) (_ BitVec 32) (_ BitVec 32) (_ BitVec 32) ) Bool)
(assert (forall ((x (_ BitVec 32)) (y (_ BitVec 32)) (k (_ BitVec 32)) (j (_ BitVec 32)) (i (_ BitVec 32)) (n (_ BitVec 32)) (m (_ BitVec 32))) 
       (=> ( and ( = ( bvadd x y ) k ) ( = m (_ bv0 32) ) ( = j (_ bv0 32) ) ) (inv x y k j i n m))))
(assert (forall ((x (_ BitVec 32)) (y (_ BitVec 32)) (k (_ BitVec 32)) (j (_ BitVec 32)) (i (_ BitVec 32)) (n (_ BitVec 32)) (m (_ BitVec 32)) (x! (_ BitVec 32)) (y! (_ BitVec 32)) (k! (_ BitVec 32)) (j! (_ BitVec 32)) (i! (_ BitVec 32)) (n! (_ BitVec 32)) (m! (_ BitVec 32))) 
       (=> (and (inv x y k j i n m) ( or ( and ( bvslt j n ) ( = j i ) ( = x! ( bvadd x (_ bv1 32) ) ) ( = y! ( bvsub y (_ bv1 32) ) ) ( = k! k ) ( = j! ( bvadd j (_ bv1 32) ) ) ( = i! i ) ( = n! n ) ( = m! m ) ) ( and ( bvslt j n ) ( = j i ) ( = x! ( bvadd x (_ bv1 32) ) ) ( = y! ( bvsub y (_ bv1 32) ) ) ( = k! k ) ( = j! ( bvadd j (_ bv1 32) ) ) ( = i! i ) ( = n! n ) ( = m! j ) ) ( and ( bvslt j n ) ( not ( = j i ) ) ( = x! ( bvsub x (_ bv1 32) ) ) ( = y! ( bvadd y (_ bv1 32) ) ) ( = k! k ) ( = j! ( bvadd j (_ bv1 32) ) ) ( = i! i ) ( = n! n ) ( = m! m ) ) ( and ( bvslt j n ) ( not ( = j i ) ) ( = x! ( bvsub x (_ bv1 32) ) ) ( = y! ( bvadd y (_ bv1 32) ) ) ( = k! k ) ( = j! ( bvadd j (_ bv1 32) ) ) ( = i! i ) ( = n! n ) ( = m! j ) ) ( and ( bvsge j n ) ( = x! x ) ( = y! y ) ( = k! k ) ( = j! j ) ( = i! i ) ( = n! n ) ( = m! m ) ) )) (inv x! y! k! j! i! n! m!))))
(assert (forall ((x (_ BitVec 32)) (y (_ BitVec 32)) (k (_ BitVec 32)) (j (_ BitVec 32)) (i (_ BitVec 32)) (n (_ BitVec 32)) (m (_ BitVec 32))) 
       (=> (inv x y k j i n m) ( => ( bvsge j n ) ( and ( = ( bvadd x y ) k ) ( or ( bvsle n (_ bv0 32) ) ( bvsle (_ bv0 32) m ) ) ( or ( bvsle n (_ bv0 32) ) ( bvsle m n ) ) ) ))))
(check-sat)
